============================[ Problem Statistics ]=============================|                                                                             ||  Number of variables:          4242                                         ||  Number of clauses:            9739                                         ||  Parse time:                   0.16 s                                       ||                                                                             |============================[ Search Statistics ]==============================| Conflicts |          ORIGINAL         |          LEARNT          | Progress ||           |    Vars  Clauses Literals |    Limit  Clauses Lit/Cl |          |==============================================================================================================================================================restarts              : 1conflicts             : 87             (330 /sec)decisions             : 172            (0.00 % random) (652 /sec)propagations          : 8229           (31170 /sec)conflict literals     : 4481           (95.97 % deleted)CPU time              : 0.264 sSATISFIABLE